examples/pyomo/tutorials/data.out
14 Set Declarations
    A : Size=1, Index=None, Ordered=Insertion
        Key  : Dimen : Domain : Size : Members
        None :     1 :    Any :    3 : {'A1', 'A2', 'A3'}
    B : Size=1, Index=None, Ordered=Insertion
        Key  : Dimen : Domain : Size : Members
        None :     1 :    Any :    3 : {1, 2, 3}
    C : Size=1, Index=None, Ordered=True
        Key  : Dimen : Domain : Size : Members
        None :     2 :    A*B :    9 : {('A1', 1), ('A1', 2), ('A1', 3), ('A2', 1), ('A2', 2), ('A2', 3), ('A3', 1), ('A3', 2), ('A3', 3)}
    D : Size=1, Index=None, Ordered=Insertion
        Key  : Dimen : Domain : Size : Members
        None :     2 :    A*B :    3 : {('A1', 1), ('A2', 2), ('A3', 3)}
    E : Size=1, Index=None, Ordered=Insertion
        Key  : Dimen : Domain : Size : Members
        None :     3 :  A*B*A :    6 : {('A1', 1, 'A1'), ('A1', 1, 'A2'), ('A2', 2, 'A2'), ('A2', 2, 'A3'), ('A3', 3, 'A1'), ('A3', 3, 'A3')}
    F : Size=3, Index=A, Ordered=Insertion
        Key : Dimen : Domain : Size : Members
         A1 :     1 :    Any :    3 : {1, 3, 5}
         A2 :     1 :    Any :    3 : {2, 4, 6}
         A3 :     1 :    Any :    3 : {3, 5, 7}
    G : Size=0, Index=A*B, Ordered=Insertion
        Key : Dimen : Domain : Size : Members
    H : Size=1, Index=None, Ordered=Insertion
        Key  : Dimen : Domain : Size : Members
        None :     1 :    Any :    3 : {'H1', 'H2', 'H3'}
    I : Size=1, Index=None, Ordered=Insertion
        Key  : Dimen : Domain : Size : Members
        None :     1 :    Any :    4 : {'I1', 'I2', 'I3', 'I4'}
    J : Size=1, Index=None, Ordered=Insertion
        Key  : Dimen : Domain : Size : Members
        None :     2 :    Any :    3 : {('A1', 'B1'), ('A2', 'B2'), ('A3', 'B3')}
    K : Size=1, Index=None, Ordered=Insertion
        Key  : Dimen : Domain : Size : Members
        None :     2 :    Any :    3 : {('A1', 'B1'), ('A2', 'B2'), ('A3', 'B3')}
    x : Size=1, Index=None, Ordered=Insertion
        Key  : Dimen : Domain : Size : Members
        None :     1 :    Any :    3 : {'A1', 'A2', 'A3'}
    y : Size=1, Index=None, Ordered=Insertion
        Key  : Dimen : Domain : Size : Members
        None :     1 :    Any :    3 : {'A1', 'A2', 'A3'}
    z : Size=1, Index=None, Ordered=Insertion
        Key  : Dimen : Domain : Size : Members
        None :     2 :    Any :    3 : {('A1', 'B1'), ('A2', 'B2'), ('A3', 'B3')}

18 Param Declarations
    M : Size=3, Index=K, Domain=Reals, Default=None, Mutable=False
        Key          : Value
        ('A1', 'B1') :   4.3
        ('A2', 'B2') :   4.4
        ('A3', 'B3') :   4.5
    MM : Size=3, Index=z, Domain=Any, Default=None, Mutable=False
        Key          : Value
        ('A1', 'B1') :   5.3
        ('A2', 'B2') :   5.4
        ('A3', 'B3') :   5.5
    MMM : Size=3, Index=z, Domain=Any, Default=None, Mutable=False
        Key          : Value
        ('A1', 'B1') :   4.3
        ('A2', 'B2') :   4.4
        ('A3', 'B3') :   4.5
    N : Size=3, Index=y, Domain=Reals, Default=None, Mutable=False
        Key : Value
         A1 :   5.3
         A2 :   5.4
         A3 :   5.5
    NNN : Size=3, Index=x, Domain=Any, Default=None, Mutable=False
        Key : Value
         A1 :   5.3
         A2 :   5.4
         A3 :   5.5
    O : Size=3, Index=J, Domain=Reals, Default=None, Mutable=False
        Key          : Value
        ('A1', 'B1') :   5.3
        ('A2', 'B2') :   5.4
        ('A3', 'B3') :   5.5
    P : Size=3, Index=J, Domain=Reals, Default=None, Mutable=False
        Key          : Value
        ('A1', 'B1') :   4.3
        ('A2', 'B2') :   4.4
        ('A3', 'B3') :   4.5
    PP : Size=3, Index=J, Domain=Reals, Default=None, Mutable=False
        Key          : Value
        ('A1', 'B1') :   4.3
        ('A2', 'B2') :   4.4
        ('A3', 'B3') :   4.5
    Q : Size=3, Index=H, Domain=Reals, Default=None, Mutable=False
        Key : Value
         H1 :   4.3
         H2 :   4.4
         H3 :   4.5
    R : Size=3, Index=H, Domain=Reals, Default=None, Mutable=False
        Key : Value
         H1 :   3.3
         H2 :   3.4
         H3 :   3.5
    S : Size=3, Index=A, Domain=Any, Default=0.0, Mutable=False
        Key : Value
         A1 :   3.3
         A3 :   3.5
    T : Size=12, Index=A*I, Domain=Any, Default=None, Mutable=False
        Key          : Value
        ('A1', 'I1') :   1.3
        ('A1', 'I2') :   1.4
        ('A1', 'I3') :   1.5
        ('A1', 'I4') :   1.6
        ('A2', 'I1') :   2.3
        ('A2', 'I2') :   2.4
        ('A2', 'I3') :   2.5
        ('A2', 'I4') :   2.6
        ('A3', 'I1') :   3.3
        ('A3', 'I2') :   3.4
        ('A3', 'I3') :   3.5
        ('A3', 'I4') :   3.6
    U : Size=12, Index=I*A, Domain=Any, Default=None, Mutable=False
        Key          : Value
        ('I1', 'A1') :   1.3
        ('I1', 'A2') :   2.3
        ('I1', 'A3') :   3.3
        ('I2', 'A1') :   1.4
        ('I2', 'A2') :   2.4
        ('I2', 'A3') :   3.4
        ('I3', 'A1') :   1.5
        ('I3', 'A2') :   2.5
        ('I3', 'A3') :   3.5
        ('I4', 'A1') :   1.6
        ('I4', 'A2') :   2.6
        ('I4', 'A3') :   3.6
    W : Size=3, Index=A, Domain=Any, Default=None, Mutable=False
        Key : Value
         A1 :   4.3
         A2 :   4.4
         A3 :   4.5
    X : Size=3, Index=A, Domain=Any, Default=None, Mutable=False
        Key : Value
         A1 :   3.3
         A2 :   3.4
         A3 :   3.5
    Y : Size=3, Index=A, Domain=Any, Default=None, Mutable=False
        Key : Value
         A1 :   3.3
         A2 :   3.4
         A3 :   3.5
    Z : Size=1, Index=None, Domain=Any, Default=None, Mutable=False
        Key  : Value
        None :   1.1
    ZZ : Size=1, Index=None, Domain=Any, Default=None, Mutable=False
        Key  : Value
        None :     2

32 Declarations: A B C D E F G H I J K Z ZZ Y X W U T S R Q P PP O z y x M N MM MMM NNN
